100 36 100
55 17 99 68 89 7 11 17 45 11 27 55 78 16 11 29 50 10 97 49 50 56 26 59 57 85 26 90 8 37 75 15 6 75 83 47 34 46 16 32 58 95 39 88 11 50 17 61 13 15 63 63 71 41 74 80 26 22 86 90 98 53 48 25 88 96 59 35 64 43 45 60 35 33 71 37 2 85 50 17 65 40 41 40 73 19 92 95 57 82 45 62 83 70 50 31 82 85 95 25 
